Minimize
+ 2 x_0 + 2 x_1 + 2 x_2 + 2 x_3 + 2 x_4 
+ 2 x_5 + 2 x_6 + 2 x_7 + 2 x_8 + 2 x_9 
+ 3 x_10 + 3 x_11 + 3 x_12 + 3 x_13 + 3 x_14 
+ 3 x_15 + 3 x_16 + 3 x_17 + 3 x_18 + 3 x_19 
+ 1 x_20 + 1 x_21 + 1 x_22 + 1 x_23 + 1 x_24 
+ 1 x_25 + 1 x_26 + 1 x_27 + 1 x_28 + 1 x_29 
+ 1 x_30 + 1 x_31 + 1 x_32 + 1 x_33 + 1 x_34 
+ 1 x_35 + 1 x_36 + 1 x_37 + 1 x_38 + 1 x_39 
+ 1 x_40 + 1 x_41 + 1 x_42 + 1 x_43 + 1 x_44 
+ 1 x_45 + 1 x_46 + 1 x_47 + 1 x_48 + 1 x_49 
+ 1 x_50 + 1 x_51 + 1 x_52 + 1 x_53 + 1 x_54 
+ 1 x_55 + 1 x_56 + 1 x_57 + 1 x_58 + 1 x_59 
+ 10 x_60 + 10 x_61 + 10 x_62 + 10 x_63 + 10 x_64 
+ 10 x_65 + 10 x_66 + 10 x_67 + 10 x_68 + 10 x_69 
+ 8 x_70 + 8 x_71 + 8 x_72 + 8 x_73 + 8 x_74 
+ 8 x_75 + 8 x_76 + 8 x_77 + 8 x_78 + 8 x_79 
+ 6 x_80 + 6 x_81 + 6 x_82 + 6 x_83 + 6 x_84 
+ 6 x_85 + 6 x_86 + 6 x_87 + 6 x_88 + 6 x_89 
subject to
constr_0: + x_0 + x_30 = -5
constr_1: + x_1 - x_30 + x_31 = 5
constr_2: + x_2 - x_31 + x_32 = 5
constr_3: + x_3 - x_32 + x_33 = 5
constr_4: + x_4 - x_33 + x_34 = 5
constr_5: + x_5 - x_34 + x_35 = 5
constr_6: + x_6 - x_35 + x_36 = 5
constr_7: + x_7 - x_36 + x_37 = 5
constr_8: + x_8 - x_37 + x_38 = 5
constr_9: + x_9 - x_38 + x_39 = 5
constr_10: + x_10 + x_40 = 1
constr_11: + x_11 - x_40 + x_41 = 3
constr_12: + x_12 - x_41 + x_42 = 3
constr_13: + x_13 - x_42 + x_43 = 3
constr_14: + x_14 - x_43 + x_44 = 3
constr_15: + x_15 - x_44 + x_45 = 3
constr_16: + x_16 - x_45 + x_46 = 3
constr_17: + x_17 - x_46 + x_47 = 3
constr_18: + x_18 - x_47 + x_48 = 3
constr_19: + x_19 - x_48 + x_49 = 3
constr_20: + x_20 + x_50 = 0
constr_21: + x_21 - x_50 + x_51 = 4
constr_22: + x_22 - x_51 + x_52 = 4
constr_23: + x_23 - x_52 + x_53 = 4
constr_24: + x_24 - x_53 + x_54 = 4
constr_25: + x_25 - x_54 + x_55 = 4
constr_26: + x_26 - x_55 + x_56 = 4
constr_27: + x_27 - x_56 + x_57 = 4
constr_28: + x_28 - x_57 + x_58 = 4
constr_29: + x_29 - x_58 + x_59 = 4
constr_30: + x_30 + x_40 + x_50 <= 17
constr_31: + x_31 + x_41 + x_51 <= 17
constr_32: + x_32 + x_42 + x_52 <= 17
constr_33: + x_33 + x_43 + x_53 <= 17
constr_34: + x_34 + x_44 + x_54 <= 17
constr_35: + x_35 + x_45 + x_55 <= 17
constr_36: + x_36 + x_46 + x_56 <= 17
constr_37: + x_37 + x_47 + x_57 <= 17
constr_38: + x_38 + x_48 + x_58 <= 17
constr_39: + x_39 + x_49 + x_59 <= 17
constr_40: + x_0 - 10 x_60 <= 0
constr_41: + x_1 - 10 x_61 <= 0
constr_42: + x_2 - 10 x_62 <= 0
constr_43: + x_3 - 10 x_63 <= 0
constr_44: + x_4 - 10 x_64 <= 0
constr_45: + x_5 - 10 x_65 <= 0
constr_46: + x_6 - 10 x_66 <= 0
constr_47: + x_7 - 10 x_67 <= 0
constr_48: + x_8 - 10 x_68 <= 0
constr_49: + x_9 - 10 x_69 <= 0
constr_50: + x_10 - 10 x_70 <= 0
constr_51: + x_11 - 10 x_71 <= 0
constr_52: + x_12 - 10 x_72 <= 0
constr_53: + x_13 - 10 x_73 <= 0
constr_54: + x_14 - 10 x_74 <= 0
constr_55: + x_15 - 10 x_75 <= 0
constr_56: + x_16 - 10 x_76 <= 0
constr_57: + x_17 - 10 x_77 <= 0
constr_58: + x_18 - 10 x_78 <= 0
constr_59: + x_19 - 10 x_79 <= 0
constr_60: + x_20 - 10 x_80 <= 0
constr_61: + x_21 - 10 x_81 <= 0
constr_62: + x_22 - 10 x_82 <= 0
constr_63: + x_23 - 10 x_83 <= 0
constr_64: + x_24 - 10 x_84 <= 0
constr_65: + x_25 - 10 x_85 <= 0
constr_66: + x_26 - 10 x_86 <= 0
constr_67: + x_27 - 10 x_87 <= 0
constr_68: + x_28 - 10 x_88 <= 0
constr_69: + x_29 - 10 x_89 <= 0
constr_70: + x_0 + x_10 + x_20 <= 20
constr_71: + x_1 + x_11 + x_21 <= 20
constr_72: + x_2 + x_12 + x_22 <= 20
constr_73: + x_3 + x_13 + x_23 <= 20
constr_74: + x_4 + x_14 + x_24 <= 20
constr_75: + x_5 + x_15 + x_25 <= 20
constr_76: + x_6 + x_16 + x_26 <= 20
constr_77: + x_7 + x_17 + x_27 <= 20
constr_78: + x_8 + x_18 + x_28 <= 20
constr_79: + x_9 + x_19 + x_29 <= 20
Binaries
x_60
x_61
x_62
x_63
x_64
x_65
x_66
x_67
x_68
x_69
x_70
x_71
x_72
x_73
x_74
x_75
x_76
x_77
x_78
x_79
x_80
x_81
x_82
x_83
x_84
x_85
x_86
x_87
x_88
x_89
End
